
Gurobi 11.0.1 (linux64, gurobi_cl) logging started Fri May  3 13:42:41 2024

Set parameter Username
Set parameter LogFile to value "gurobi.log"
Using license file /home/tlo/Documents/Data/bactrack_imp/gurobi.lic
Academic license - for non-commercial use only - expires 2025-03-12

Gurobi 11.0.1 (linux64, gurobi_cl) logging started Fri May  3 13:43:03 2024

Set parameter Username
Set parameter LogFile to value "gurobi.log"
Using license file /home/tlo/Documents/Data/bactrack_imp/gurobi.lic
Academic license - for non-commercial use only - expires 2025-03-12
